\ This file has been generated by DOcplex
\ ENCODING=ISO-8859-1
\Problem name: random_problem.lp

Minimize
 obj: - 1396 x0 - 698 x1 - 349 x2 - 212 x3 - 106 x4 - 53 x5 + 1256 x6 + 628 x7
      + 314 x8 + [ 3776 x0^2 + 3776 x0*x1 + 1888 x0*x2 + 2176 x0*x3 + 1088 x0*x4
      + 544 x0*x5 - 2176 x0*x6 - 1088 x0*x7 - 544 x0*x8 + 944 x1^2 + 944 x1*x2
      + 1088 x1*x3 + 544 x1*x4 + 272 x1*x5 - 1088 x1*x6 - 544 x1*x7 - 272 x1*x8
      + 236 x2^2 + 544 x2*x3 + 272 x2*x4 + 136 x2*x5 - 544 x2*x6 - 272 x2*x7
      - 136 x2*x8 + 2752 x3^2 + 2752 x3*x4 + 1376 x3*x5 - 1792 x3*x6 - 896 x3*x7
      - 448 x3*x8 + 688 x4^2 + 688 x4*x5 - 896 x4*x6 - 448 x4*x7 - 224 x4*x8
      + 172 x5^2 - 448 x5*x6 - 224 x5*x7 - 112 x5*x8 + 16896 x6^2 + 16896 x6*x7
      + 8448 x6*x8 + 4224 x7^2 + 4224 x7*x8 + 1056 x8^2 ]/2
Subject To
 c0: 4 x0 + 2 x1 + x2 + 4 x3 + 2 x4 + x5 + 4 x6 + 2 x7 + x8 = 7

Bounds
 0 <= x0 <= 1
 0 <= x1 <= 1
 0 <= x2 <= 1
 0 <= x3 <= 1
 0 <= x4 <= 1
 0 <= x5 <= 1
 0 <= x6 <= 1
 0 <= x7 <= 1
 0 <= x8 <= 1

Binaries
 x0 x1 x2 x3 x4 x5 x6 x7 x8
End
